c Sudoku solution
p cnf 729 0
136 0
171 0
214 0
265 0
311 0
346 0
369 0
489 0
516 0
538 0
549 0
575 0
627 0
664 0
682 0
735 0
776 0
286 0
797 0
812 0
821 0
926 0
867 0
856 0
466 0
696 0
898 0
939 0
917 0
759 0
879 0
619 0
945 0
885 0
655 0
991 0
972 0
581 0
477 0
678 0
557 0
761 0
742 0
374 0
273 0
968 0
493 0
594 0
415 0
113 0
162 0
353 0
718 0
452 0
563 0
641 0
448 0
431 0
633 0
522 0
424 0
723 0
834 0
784 0
983 0
843 0
954 0
251 0
144 0
158 0
247 0
187 0
388 0
232 0
337 0
299 0
392 0
195 0
129 0
325 0
228 0
